\ Model ajuste
\ LP format - for model browsing. Use MPS format to capture full model detail.
Minimize
  - 1.7667539244706862e+07 coef_ajuste + 8.8112603017596789e+06 Constant + [
   1.771267289089847e+07 coef_ajuste ^2 ] / 2 
Subject To
Bounds
 coef_ajuste <= 1
 Constant = 1
End
